\ Model Nutrition Optimization
\ LP format - for model browsing. Use MPS format to capture full model detail.
Minimize
 
Subject To
 R0: 3.4 servings[Food_Item_1] + 6.4 servings[Food_Item_2]
   + 15.3 servings[Food_Item_3] + 5.9 servings[Food_Item_4]
   + 1.4 servings[Food_Item_5] + 20.3 servings[Food_Item_6]
   + 7.3 servings[Food_Item_7] + 7.5 servings[Food_Item_8]
   + 7.4 servings[Food_Item_9] + 12.4 servings[Food_Item_10]
   + 7.5 servings[Food_Item_11] + 7.8 servings[Food_Item_12]
   + 7.1 servings[Food_Item_13] + 15.3 servings[Food_Item_14]
   + 25.2 servings[Food_Item_15] + 15.8 servings[Food_Item_16]
   + 25.3 servings[Food_Item_17] + 75.3 servings[Food_Item_18]
   + 115.5 servings[Food_Item_19] + 75.2 servings[Food_Item_20]
   + 8.1 servings[Food_Item_21] + 8.5 servings[Food_Item_22]
   + 75.7 servings[Food_Item_23] + 20.5 servings[Food_Item_24]
   + 4.1 servings[Food_Item_25] + 3.4 servings[Food_Item_26]
   + 6.4 servings[Food_Item_27] + 15.3 servings[Food_Item_28]
   + 5.9 servings[Food_Item_29] + 1.4 servings[Food_Item_30]
   + 20.3 servings[Food_Item_31] + 7.3 servings[Food_Item_32]
   + 7.5 servings[Food_Item_33] + 7.4 servings[Food_Item_34]
   + 12.4 servings[Food_Item_35] + 7.5 servings[Food_Item_36]
   + 7.8 servings[Food_Item_37] + 7.1 servings[Food_Item_38]
   + 15.3 servings[Food_Item_39] + 25.2 servings[Food_Item_40]
   + 15.8 servings[Food_Item_41] + 25.3 servings[Food_Item_42]
   + 75.3 servings[Food_Item_43] + 115.5 servings[Food_Item_44]
   + 75.2 servings[Food_Item_45] + 8.1 servings[Food_Item_46]
   + 8.5 servings[Food_Item_47] + 75.7 servings[Food_Item_48]
   + 20.5 servings[Food_Item_49] + 4.1 servings[Food_Item_50]
   + 3.4 servings[Food_Item_51] + 6.4 servings[Food_Item_52]
   + 15.3 servings[Food_Item_53] + 5.9 servings[Food_Item_54]
   + 1.4 servings[Food_Item_55] + 20.3 servings[Food_Item_56]
   + 7.3 servings[Food_Item_57] + 7.5 servings[Food_Item_58]
   + 7.4 servings[Food_Item_59] + 12.4 servings[Food_Item_60]
   + 7.5 servings[Food_Item_61] + 7.8 servings[Food_Item_62]
   + 7.1 servings[Food_Item_63] + 15.3 servings[Food_Item_64]
   + 25.2 servings[Food_Item_65] + 15.8 servings[Food_Item_66]
   + 25.3 servings[Food_Item_67] + 75.3 servings[Food_Item_68]
   + 115.5 servings[Food_Item_69] + 75.2 servings[Food_Item_70]
   + 8.1 servings[Food_Item_71] + 8.5 servings[Food_Item_72]
   + 75.7 servings[Food_Item_73] + 20.5 servings[Food_Item_74]
   + 4.1 servings[Food_Item_75] + 3.4 servings[Food_Item_76]
   + 6.4 servings[Food_Item_77] + 15.3 servings[Food_Item_78]
   + 5.9 servings[Food_Item_79] + 1.4 servings[Food_Item_80]
   + 20.3 servings[Food_Item_81] + 7.3 servings[Food_Item_82]
   + 7.5 servings[Food_Item_83] + 7.4 servings[Food_Item_84]
   + 12.4 servings[Food_Item_85] + 7.5 servings[Food_Item_86]
   + 7.8 servings[Food_Item_87] + 7.1 servings[Food_Item_88]
   + 15.3 servings[Food_Item_89] + 25.2 servings[Food_Item_90]
   + 15.8 servings[Food_Item_91] + 25.3 servings[Food_Item_92]
   + 75.3 servings[Food_Item_93] + 115.5 servings[Food_Item_94]
   + 75.2 servings[Food_Item_95] + 8.1 servings[Food_Item_96]
   + 8.5 servings[Food_Item_97] + 75.7 servings[Food_Item_98]
   + 20.5 servings[Food_Item_99] + 4.1 servings[Food_Item_100] <= 250
 R1: 3.4 servings[Food_Item_1] + 6.4 servings[Food_Item_2]
   + 15.3 servings[Food_Item_3] + 5.9 servings[Food_Item_4]
   + 1.4 servings[Food_Item_5] + 20.3 servings[Food_Item_6]
   + 7.3 servings[Food_Item_7] + 7.5 servings[Food_Item_8]
   + 7.4 servings[Food_Item_9] + 12.4 servings[Food_Item_10]
   + 7.5 servings[Food_Item_11] + 7.8 servings[Food_Item_12]
   + 7.1 servings[Food_Item_13] + 15.3 servings[Food_Item_14]
   + 25.2 servings[Food_Item_15] + 15.8 servings[Food_Item_16]
   + 25.3 servings[Food_Item_17] + 75.3 servings[Food_Item_18]
   + 115.5 servings[Food_Item_19] + 75.2 servings[Food_Item_20]
   + 8.1 servings[Food_Item_21] + 8.5 servings[Food_Item_22]
   + 75.7 servings[Food_Item_23] + 20.5 servings[Food_Item_24]
   + 4.1 servings[Food_Item_25] + 3.4 servings[Food_Item_26]
   + 6.4 servings[Food_Item_27] + 15.3 servings[Food_Item_28]
   + 5.9 servings[Food_Item_29] + 1.4 servings[Food_Item_30]
   + 20.3 servings[Food_Item_31] + 7.3 servings[Food_Item_32]
   + 7.5 servings[Food_Item_33] + 7.4 servings[Food_Item_34]
   + 12.4 servings[Food_Item_35] + 7.5 servings[Food_Item_36]
   + 7.8 servings[Food_Item_37] + 7.1 servings[Food_Item_38]
   + 15.3 servings[Food_Item_39] + 25.2 servings[Food_Item_40]
   + 15.8 servings[Food_Item_41] + 25.3 servings[Food_Item_42]
   + 75.3 servings[Food_Item_43] + 115.5 servings[Food_Item_44]
   + 75.2 servings[Food_Item_45] + 8.1 servings[Food_Item_46]
   + 8.5 servings[Food_Item_47] + 75.7 servings[Food_Item_48]
   + 20.5 servings[Food_Item_49] + 4.1 servings[Food_Item_50]
   + 3.4 servings[Food_Item_51] + 6.4 servings[Food_Item_52]
   + 15.3 servings[Food_Item_53] + 5.9 servings[Food_Item_54]
   + 1.4 servings[Food_Item_55] + 20.3 servings[Food_Item_56]
   + 7.3 servings[Food_Item_57] + 7.5 servings[Food_Item_58]
   + 7.4 servings[Food_Item_59] + 12.4 servings[Food_Item_60]
   + 7.5 servings[Food_Item_61] + 7.8 servings[Food_Item_62]
   + 7.1 servings[Food_Item_63] + 15.3 servings[Food_Item_64]
   + 25.2 servings[Food_Item_65] + 15.8 servings[Food_Item_66]
   + 25.3 servings[Food_Item_67] + 75.3 servings[Food_Item_68]
   + 115.5 servings[Food_Item_69] + 75.2 servings[Food_Item_70]
   + 8.1 servings[Food_Item_71] + 8.5 servings[Food_Item_72]
   + 75.7 servings[Food_Item_73] + 20.5 servings[Food_Item_74]
   + 4.1 servings[Food_Item_75] + 3.4 servings[Food_Item_76]
   + 6.4 servings[Food_Item_77] + 15.3 servings[Food_Item_78]
   + 5.9 servings[Food_Item_79] + 1.4 servings[Food_Item_80]
   + 20.3 servings[Food_Item_81] + 7.3 servings[Food_Item_82]
   + 7.5 servings[Food_Item_83] + 7.4 servings[Food_Item_84]
   + 12.4 servings[Food_Item_85] + 7.5 servings[Food_Item_86]
   + 7.8 servings[Food_Item_87] + 7.1 servings[Food_Item_88]
   + 15.3 servings[Food_Item_89] + 25.2 servings[Food_Item_90]
   + 15.8 servings[Food_Item_91] + 25.3 servings[Food_Item_92]
   + 75.3 servings[Food_Item_93] + 115.5 servings[Food_Item_94]
   + 75.2 servings[Food_Item_95] + 8.1 servings[Food_Item_96]
   + 8.5 servings[Food_Item_97] + 75.7 servings[Food_Item_98]
   + 20.5 servings[Food_Item_99] + 4.1 servings[Food_Item_100] >= 100
 R2: 0.26 servings[Food_Item_1] + 9.17 servings[Food_Item_2]
   + 0.98 servings[Food_Item_3] + 13.3 servings[Food_Item_4]
   + 1.1 servings[Food_Item_5] + 1.92 servings[Food_Item_6]
   + 4.98 servings[Food_Item_7] + 16.56 servings[Food_Item_8]
   + 19.8 servings[Food_Item_9] + 23 servings[Food_Item_10]
   + 14.26 servings[Food_Item_12] + 0.11 servings[Food_Item_13]
   + 13.5 servings[Food_Item_14] + 19.4 servings[Food_Item_15]
   + 21.76 servings[Food_Item_16] + 3 servings[Food_Item_17]
   + 0.91 servings[Food_Item_18] + 11.6 servings[Food_Item_19]
   + 19.2 servings[Food_Item_20] + 0.81 servings[Food_Item_21]
   + 4.32 servings[Food_Item_22] + 6.73 servings[Food_Item_23]
   + 11.6 servings[Food_Item_24] + 7.85 servings[Food_Item_25]
   + 21.67 servings[Food_Item_28] + 13.69 servings[Food_Item_30]
   + 13.04 servings[Food_Item_31] + 1.03 servings[Food_Item_32]
   + 7.05 servings[Food_Item_33] + 1.2 servings[Food_Item_34]
   + 2.48 servings[Food_Item_35] + 0.52 servings[Food_Item_36]
   + 23.08 servings[Food_Item_37] + 6.2 servings[Food_Item_38]
   + 4.08 servings[Food_Item_39] + 8.96 servings[Food_Item_40]
   + 9 servings[Food_Item_41] + 3 servings[Food_Item_42]
   + 9.7 servings[Food_Item_43] + 13.16 servings[Food_Item_44]
   + 20.21 servings[Food_Item_45] + 3.38 servings[Food_Item_47]
   + 3.83 servings[Food_Item_48] + 0.28 servings[Food_Item_49]
   + 0.9 servings[Food_Item_50] + 6.5 servings[Food_Item_51]
   + 6.5 servings[Food_Item_52] + 2.98 servings[Food_Item_53]
   + 1.47 servings[Food_Item_54] + 1.16 servings[Food_Item_55]
   + 0.98 servings[Food_Item_56] + 6.9 servings[Food_Item_57]
   + 33.8 servings[Food_Item_58] + 25.23 servings[Food_Item_59]
   + 3.41 servings[Food_Item_60] + 27.37 servings[Food_Item_61]
   + 4 servings[Food_Item_62] + 3.73 servings[Food_Item_63]
   + 12.96 servings[Food_Item_64] + 8 servings[Food_Item_65]
   + 8.28 servings[Food_Item_66] + 16.55 servings[Food_Item_67]
   + 15.86 servings[Food_Item_69] + 4.71 servings[Food_Item_70]
   + 21.8 servings[Food_Item_71] + 19.61 servings[Food_Item_72]
   + 22.25 servings[Food_Item_73] + 22.22 servings[Food_Item_74]
   + 3.8 servings[Food_Item_75] + 6.7 servings[Food_Item_76]
   + 1.5 servings[Food_Item_77] + 3.3 servings[Food_Item_78]
   + 21.39 servings[Food_Item_79] + 2.98 servings[Food_Item_81]
   + 2.44 servings[Food_Item_82] + 1.2 servings[Food_Item_83]
   + 12.92 servings[Food_Item_84] + 23.78 servings[Food_Item_85]
   + 7.48 servings[Food_Item_88] + 2.66 servings[Food_Item_89]
   + 29.1 servings[Food_Item_90] + 21.7 servings[Food_Item_91]
   + 10.58 servings[Food_Item_92] + 26.15 servings[Food_Item_93]
   + 1.48 servings[Food_Item_94] + 22.24 servings[Food_Item_95]
   + 0.33 servings[Food_Item_96] + 1.18 servings[Food_Item_97]
   + 17.28 servings[Food_Item_98] + 19.03 servings[Food_Item_99]
   + 16.18 servings[Food_Item_100] >= 56
 R3: 0.26 servings[Food_Item_1] + 9.17 servings[Food_Item_2]
   + 0.98 servings[Food_Item_3] + 13.3 servings[Food_Item_4]
   + 1.1 servings[Food_Item_5] + 1.92 servings[Food_Item_6]
   + 4.98 servings[Food_Item_7] + 16.56 servings[Food_Item_8]
   + 19.8 servings[Food_Item_9] + 23 servings[Food_Item_10]
   + 14.26 servings[Food_Item_12] + 0.11 servings[Food_Item_13]
   + 13.5 servings[Food_Item_14] + 19.4 servings[Food_Item_15]
   + 21.76 servings[Food_Item_16] + 3 servings[Food_Item_17]
   + 0.91 servings[Food_Item_18] + 11.6 servings[Food_Item_19]
   + 19.2 servings[Food_Item_20] + 0.81 servings[Food_Item_21]
   + 4.32 servings[Food_Item_22] + 6.73 servings[Food_Item_23]
   + 11.6 servings[Food_Item_24] + 7.85 servings[Food_Item_25]
   + 21.67 servings[Food_Item_28] + 13.69 servings[Food_Item_30]
   + 13.04 servings[Food_Item_31] + 1.03 servings[Food_Item_32]
   + 7.05 servings[Food_Item_33] + 1.2 servings[Food_Item_34]
   + 2.48 servings[Food_Item_35] + 0.52 servings[Food_Item_36]
   + 23.08 servings[Food_Item_37] + 6.2 servings[Food_Item_38]
   + 4.08 servings[Food_Item_39] + 8.96 servings[Food_Item_40]
   + 9 servings[Food_Item_41] + 3 servings[Food_Item_42]
   + 9.7 servings[Food_Item_43] + 13.16 servings[Food_Item_44]
   + 20.21 servings[Food_Item_45] + 3.38 servings[Food_Item_47]
   + 3.83 servings[Food_Item_48] + 0.28 servings[Food_Item_49]
   + 0.9 servings[Food_Item_50] + 6.5 servings[Food_Item_51]
   + 6.5 servings[Food_Item_52] + 2.98 servings[Food_Item_53]
   + 1.47 servings[Food_Item_54] + 1.16 servings[Food_Item_55]
   + 0.98 servings[Food_Item_56] + 6.9 servings[Food_Item_57]
   + 33.8 servings[Food_Item_58] + 25.23 servings[Food_Item_59]
   + 3.41 servings[Food_Item_60] + 27.37 servings[Food_Item_61]
   + 4 servings[Food_Item_62] + 3.73 servings[Food_Item_63]
   + 12.96 servings[Food_Item_64] + 8 servings[Food_Item_65]
   + 8.28 servings[Food_Item_66] + 16.55 servings[Food_Item_67]
   + 15.86 servings[Food_Item_69] + 4.71 servings[Food_Item_70]
   + 21.8 servings[Food_Item_71] + 19.61 servings[Food_Item_72]
   + 22.25 servings[Food_Item_73] + 22.22 servings[Food_Item_74]
   + 3.8 servings[Food_Item_75] + 6.7 servings[Food_Item_76]
   + 1.5 servings[Food_Item_77] + 3.3 servings[Food_Item_78]
   + 21.39 servings[Food_Item_79] + 2.98 servings[Food_Item_81]
   + 2.44 servings[Food_Item_82] + 1.2 servings[Food_Item_83]
   + 12.92 servings[Food_Item_84] + 23.78 servings[Food_Item_85]
   + 7.48 servings[Food_Item_88] + 2.66 servings[Food_Item_89]
   + 29.1 servings[Food_Item_90] + 21.7 servings[Food_Item_91]
   + 10.58 servings[Food_Item_92] + 26.15 servings[Food_Item_93]
   + 1.48 servings[Food_Item_94] + 22.24 servings[Food_Item_95]
   + 0.33 servings[Food_Item_96] + 1.18 servings[Food_Item_97]
   + 17.28 servings[Food_Item_98] + 19.03 servings[Food_Item_99]
   + 16.18 servings[Food_Item_100] <= 82
 R4: 381 servings[Food_Item_1] + 691 servings[Food_Item_2]
   + 25 servings[Food_Item_3] + 367 servings[Food_Item_4]
   + 144 servings[Food_Item_5] + 25 servings[Food_Item_6]
   + 42 servings[Food_Item_7] + 282 servings[Food_Item_8]
   + 300 servings[Food_Item_9] + 290 servings[Food_Item_10]
   + 25 servings[Food_Item_11] + 349 servings[Food_Item_12]
   + 51 servings[Food_Item_13] + 407 servings[Food_Item_14]
   + 215 servings[Food_Item_15] + 134 servings[Food_Item_16]
   + 316 servings[Food_Item_17] + 29 servings[Food_Item_18]
   + 148 servings[Food_Item_19] + 172 servings[Food_Item_20]
   + 57 servings[Food_Item_21] + 182 servings[Food_Item_22]
   + 272 servings[Food_Item_23] + 516 servings[Food_Item_24]
   + 201 servings[Food_Item_25] + 25 servings[Food_Item_26]
   + 270 servings[Food_Item_27] + 119 servings[Food_Item_28]
   + 268 servings[Food_Item_29] + 673 servings[Food_Item_30]
   + 371 servings[Food_Item_31] + 20 servings[Food_Item_32]
   + 406 servings[Food_Item_33] + 30 servings[Food_Item_34]
   + 271 servings[Food_Item_35] + 68 servings[Food_Item_36]
   + 103 servings[Food_Item_37] + 576 servings[Food_Item_38]
   + 283 servings[Food_Item_39] + 106 servings[Food_Item_40]
   + 322 servings[Food_Item_41] + 316 servings[Food_Item_42]
   + 384 servings[Food_Item_43] + 383 servings[Food_Item_44]
   + 108 servings[Food_Item_45] + 47 servings[Food_Item_46]
   + 43 servings[Food_Item_47] + 33 servings[Food_Item_48]
   + 876 servings[Food_Item_49] + 17 servings[Food_Item_50]
   + 424 servings[Food_Item_51] + 424 servings[Food_Item_52]
   + 28 servings[Food_Item_53] + 147 servings[Food_Item_54]
   + 16 servings[Food_Item_55] + 15 servings[Food_Item_56]
   + 410 servings[Food_Item_57] + 428 servings[Food_Item_58]
   + 116 servings[Food_Item_59] + 282 servings[Food_Item_60]
   + 203 servings[Food_Item_61] + 461 servings[Food_Item_62]
   + 301 servings[Food_Item_63] + 313 servings[Food_Item_64]
   + 374 servings[Food_Item_65] + 500 servings[Food_Item_66]
   + 331 servings[Food_Item_67] + 763 servings[Food_Item_68]
   + 322 servings[Food_Item_69] + 103 servings[Food_Item_70]
   + 147 servings[Food_Item_71] + 233 servings[Food_Item_72]
   + 102 servings[Food_Item_73] + 108 servings[Food_Item_74]
   + 216 servings[Food_Item_75] + 522 servings[Food_Item_76]
   + 36 servings[Food_Item_77] + 249 servings[Food_Item_78]
   + 133 servings[Food_Item_79] + 261 servings[Food_Item_80]
   + 28 servings[Food_Item_81] + 198 servings[Food_Item_82]
   + 16 servings[Food_Item_83] + 264 servings[Food_Item_84]
   + 352 servings[Food_Item_85] + 100 servings[Food_Item_86]
   + 133 servings[Food_Item_87] + 293 servings[Food_Item_88]
   + 37 servings[Food_Item_89] + 517 servings[Food_Item_90]
   + 425 servings[Food_Item_91] + 427 servings[Food_Item_92]
   + 570 servings[Food_Item_93] + 72 servings[Food_Item_94]
   + 102 servings[Food_Item_95] + 62 servings[Food_Item_96]
   + 48 servings[Food_Item_97] + 146 servings[Food_Item_98]
   + 172 servings[Food_Item_99] + 245 servings[Food_Item_100] >= 2000
 R5: 381 servings[Food_Item_1] + 691 servings[Food_Item_2]
   + 25 servings[Food_Item_3] + 367 servings[Food_Item_4]
   + 144 servings[Food_Item_5] + 25 servings[Food_Item_6]
   + 42 servings[Food_Item_7] + 282 servings[Food_Item_8]
   + 300 servings[Food_Item_9] + 290 servings[Food_Item_10]
   + 25 servings[Food_Item_11] + 349 servings[Food_Item_12]
   + 51 servings[Food_Item_13] + 407 servings[Food_Item_14]
   + 215 servings[Food_Item_15] + 134 servings[Food_Item_16]
   + 316 servings[Food_Item_17] + 29 servings[Food_Item_18]
   + 148 servings[Food_Item_19] + 172 servings[Food_Item_20]
   + 57 servings[Food_Item_21] + 182 servings[Food_Item_22]
   + 272 servings[Food_Item_23] + 516 servings[Food_Item_24]
   + 201 servings[Food_Item_25] + 25 servings[Food_Item_26]
   + 270 servings[Food_Item_27] + 119 servings[Food_Item_28]
   + 268 servings[Food_Item_29] + 673 servings[Food_Item_30]
   + 371 servings[Food_Item_31] + 20 servings[Food_Item_32]
   + 406 servings[Food_Item_33] + 30 servings[Food_Item_34]
   + 271 servings[Food_Item_35] + 68 servings[Food_Item_36]
   + 103 servings[Food_Item_37] + 576 servings[Food_Item_38]
   + 283 servings[Food_Item_39] + 106 servings[Food_Item_40]
   + 322 servings[Food_Item_41] + 316 servings[Food_Item_42]
   + 384 servings[Food_Item_43] + 383 servings[Food_Item_44]
   + 108 servings[Food_Item_45] + 47 servings[Food_Item_46]
   + 43 servings[Food_Item_47] + 33 servings[Food_Item_48]
   + 876 servings[Food_Item_49] + 17 servings[Food_Item_50]
   + 424 servings[Food_Item_51] + 424 servings[Food_Item_52]
   + 28 servings[Food_Item_53] + 147 servings[Food_Item_54]
   + 16 servings[Food_Item_55] + 15 servings[Food_Item_56]
   + 410 servings[Food_Item_57] + 428 servings[Food_Item_58]
   + 116 servings[Food_Item_59] + 282 servings[Food_Item_60]
   + 203 servings[Food_Item_61] + 461 servings[Food_Item_62]
   + 301 servings[Food_Item_63] + 313 servings[Food_Item_64]
   + 374 servings[Food_Item_65] + 500 servings[Food_Item_66]
   + 331 servings[Food_Item_67] + 763 servings[Food_Item_68]
   + 322 servings[Food_Item_69] + 103 servings[Food_Item_70]
   + 147 servings[Food_Item_71] + 233 servings[Food_Item_72]
   + 102 servings[Food_Item_73] + 108 servings[Food_Item_74]
   + 216 servings[Food_Item_75] + 522 servings[Food_Item_76]
   + 36 servings[Food_Item_77] + 249 servings[Food_Item_78]
   + 133 servings[Food_Item_79] + 261 servings[Food_Item_80]
   + 28 servings[Food_Item_81] + 198 servings[Food_Item_82]
   + 16 servings[Food_Item_83] + 264 servings[Food_Item_84]
   + 352 servings[Food_Item_85] + 100 servings[Food_Item_86]
   + 133 servings[Food_Item_87] + 293 servings[Food_Item_88]
   + 37 servings[Food_Item_89] + 517 servings[Food_Item_90]
   + 425 servings[Food_Item_91] + 427 servings[Food_Item_92]
   + 570 servings[Food_Item_93] + 72 servings[Food_Item_94]
   + 102 servings[Food_Item_95] + 62 servings[Food_Item_96]
   + 48 servings[Food_Item_97] + 146 servings[Food_Item_98]
   + 172 servings[Food_Item_99] + 245 servings[Food_Item_100] <= 3000
 R6: 91.27 servings[Food_Item_1] + 13.86 servings[Food_Item_2]
   + 5.88 servings[Food_Item_3] + 73.13 servings[Food_Item_4]
   + 30.4 servings[Food_Item_5] + 4.97 servings[Food_Item_6]
   + 6.7 servings[Food_Item_7] + 0.46 servings[Food_Item_9]
   + 9 servings[Food_Item_10] + 6.25 servings[Food_Item_11]
   + 77.06 servings[Food_Item_12] + 13.12 servings[Food_Item_13]
   + 72.3 servings[Food_Item_14] + 0.2 servings[Food_Item_15]
   + 42.6 servings[Food_Item_17] + 6.5 servings[Food_Item_18]
   + 28.1 servings[Food_Item_19] + 1.55 servings[Food_Item_20]
   + 13.93 servings[Food_Item_21] + 37.6 servings[Food_Item_22]
   + 68.73 servings[Food_Item_23] + 50.3 servings[Food_Item_24]
   + 8.13 servings[Food_Item_25] + 6.25 servings[Food_Item_26]
   + 67.38 servings[Food_Item_27] + 94.8 servings[Food_Item_29]
   + 13.08 servings[Food_Item_30] + 74.67 servings[Food_Item_31]
   + 4.3 servings[Food_Item_32] + 70.54 servings[Food_Item_33]
   + 4.67 servings[Food_Item_34] + 28.56 servings[Food_Item_35]
   + 16.23 servings[Food_Item_36] + 33.5 servings[Food_Item_38]
   + 74.08 servings[Food_Item_39] + 22.14 servings[Food_Item_40]
   + 67.64 servings[Food_Item_41] + 42.6 servings[Food_Item_42]
   + 80.1 servings[Food_Item_43] + 58.84 servings[Food_Item_44]
   + 11.86 servings[Food_Item_46] + 8.95 servings[Food_Item_47]
   + 3.12 servings[Food_Item_48] + 4 servings[Food_Item_50]
   + 87.7 servings[Food_Item_51] + 87.7 servings[Food_Item_52]
   + 5.06 servings[Food_Item_53] + 27.09 servings[Food_Item_54]
   + 3.18 servings[Food_Item_55] + 2.98 servings[Food_Item_56]
   + 82.8 servings[Food_Item_57] + 31.27 servings[Food_Item_58]
   + 35.2 servings[Food_Item_60] + 72.9 servings[Food_Item_62]
   + 39.73 servings[Food_Item_63] + 55.77 servings[Food_Item_64]
   + 37.2 servings[Food_Item_65] + 47.59 servings[Food_Item_66]
   + 72.73 servings[Food_Item_67] + 3.59 servings[Food_Item_69]
   + 19.22 servings[Food_Item_70] + 0.36 servings[Food_Item_71]
   + 7.7 servings[Food_Item_72] + 28.2 servings[Food_Item_75]
   + 53.3 servings[Food_Item_76] + 7 servings[Food_Item_77]
   + 63.87 servings[Food_Item_78] + 65.1 servings[Food_Item_80]
   + 5.24 servings[Food_Item_81] + 4.63 servings[Food_Item_82]
   + 2.5 servings[Food_Item_83] + 30.28 servings[Food_Item_84]
   + 0.57 servings[Food_Item_85] + 6.67 servings[Food_Item_86]
   + 20 servings[Food_Item_87] + 65.07 servings[Food_Item_88]
   + 7.81 servings[Food_Item_89] + 0.8 servings[Food_Item_90]
   + 1.2 servings[Food_Item_91] + 69.55 servings[Food_Item_92]
   + 15.83 servings[Food_Item_93] + 14.26 servings[Food_Item_94]
   + 14.94 servings[Food_Item_96] + 11.29 servings[Food_Item_97]
   + 0.44 servings[Food_Item_99] + 2.28 servings[Food_Item_100] >= 130
 R7: 91.27 servings[Food_Item_1] + 13.86 servings[Food_Item_2]
   + 5.88 servings[Food_Item_3] + 73.13 servings[Food_Item_4]
   + 30.4 servings[Food_Item_5] + 4.97 servings[Food_Item_6]
   + 6.7 servings[Food_Item_7] + 0.46 servings[Food_Item_9]
   + 9 servings[Food_Item_10] + 6.25 servings[Food_Item_11]
   + 77.06 servings[Food_Item_12] + 13.12 servings[Food_Item_13]
   + 72.3 servings[Food_Item_14] + 0.2 servings[Food_Item_15]
   + 42.6 servings[Food_Item_17] + 6.5 servings[Food_Item_18]
   + 28.1 servings[Food_Item_19] + 1.55 servings[Food_Item_20]
   + 13.93 servings[Food_Item_21] + 37.6 servings[Food_Item_22]
   + 68.73 servings[Food_Item_23] + 50.3 servings[Food_Item_24]
   + 8.13 servings[Food_Item_25] + 6.25 servings[Food_Item_26]
   + 67.38 servings[Food_Item_27] + 94.8 servings[Food_Item_29]
   + 13.08 servings[Food_Item_30] + 74.67 servings[Food_Item_31]
   + 4.3 servings[Food_Item_32] + 70.54 servings[Food_Item_33]
   + 4.67 servings[Food_Item_34] + 28.56 servings[Food_Item_35]
   + 16.23 servings[Food_Item_36] + 33.5 servings[Food_Item_38]
   + 74.08 servings[Food_Item_39] + 22.14 servings[Food_Item_40]
   + 67.64 servings[Food_Item_41] + 42.6 servings[Food_Item_42]
   + 80.1 servings[Food_Item_43] + 58.84 servings[Food_Item_44]
   + 11.86 servings[Food_Item_46] + 8.95 servings[Food_Item_47]
   + 3.12 servings[Food_Item_48] + 4 servings[Food_Item_50]
   + 87.7 servings[Food_Item_51] + 87.7 servings[Food_Item_52]
   + 5.06 servings[Food_Item_53] + 27.09 servings[Food_Item_54]
   + 3.18 servings[Food_Item_55] + 2.98 servings[Food_Item_56]
   + 82.8 servings[Food_Item_57] + 31.27 servings[Food_Item_58]
   + 35.2 servings[Food_Item_60] + 72.9 servings[Food_Item_62]
   + 39.73 servings[Food_Item_63] + 55.77 servings[Food_Item_64]
   + 37.2 servings[Food_Item_65] + 47.59 servings[Food_Item_66]
   + 72.73 servings[Food_Item_67] + 3.59 servings[Food_Item_69]
   + 19.22 servings[Food_Item_70] + 0.36 servings[Food_Item_71]
   + 7.7 servings[Food_Item_72] + 28.2 servings[Food_Item_75]
   + 53.3 servings[Food_Item_76] + 7 servings[Food_Item_77]
   + 63.87 servings[Food_Item_78] + 65.1 servings[Food_Item_80]
   + 5.24 servings[Food_Item_81] + 4.63 servings[Food_Item_82]
   + 2.5 servings[Food_Item_83] + 30.28 servings[Food_Item_84]
   + 0.57 servings[Food_Item_85] + 6.67 servings[Food_Item_86]
   + 20 servings[Food_Item_87] + 65.07 servings[Food_Item_88]
   + 7.81 servings[Food_Item_89] + 0.8 servings[Food_Item_90]
   + 1.2 servings[Food_Item_91] + 69.55 servings[Food_Item_92]
   + 15.83 servings[Food_Item_93] + 14.26 servings[Food_Item_94]
   + 14.94 servings[Food_Item_96] + 11.29 servings[Food_Item_97]
   + 0.44 servings[Food_Item_99] + 2.28 servings[Food_Item_100] <= 550
 R8: 0.05 servings[Food_Item_1] + 71.97 servings[Food_Item_2]
   + 0.18 servings[Food_Item_3] + 2.38 servings[Food_Item_4]
   + 2 servings[Food_Item_5] + 0.28 servings[Food_Item_6]
   + 0.74 servings[Food_Item_7] + 23.41 servings[Food_Item_8]
   + 24.26 servings[Food_Item_9] + 18 servings[Food_Item_10]
   + 0.39 servings[Food_Item_12] + 0.06 servings[Food_Item_13]
   + 7.2 servings[Food_Item_14] + 14.6 servings[Food_Item_15]
   + 4.53 servings[Food_Item_16] + 16.1 servings[Food_Item_17]
   + 0.37 servings[Food_Item_18] + 0.9 servings[Food_Item_19]
   + 9.21 servings[Food_Item_20] + 0.47 servings[Food_Item_21]
   + 1.68 servings[Food_Item_22] + 5.91 servings[Food_Item_23]
   + 33.3 servings[Food_Item_24] + 15.28 servings[Food_Item_25]
   + 2.95 servings[Food_Item_28] + 0.4 servings[Food_Item_29]
   + 68.37 servings[Food_Item_30] + 1.51 servings[Food_Item_31]
   + 0.19 servings[Food_Item_32] + 10.58 servings[Food_Item_33]
   + 0.76 servings[Food_Item_34] + 16.3 servings[Food_Item_35]
   + 0.15 servings[Food_Item_36] + 0.48 servings[Food_Item_37]
   + 50 servings[Food_Item_38] + 0.27 servings[Food_Item_39]
   + 0.55 servings[Food_Item_40] + 3 servings[Food_Item_41]
   + 16.1 servings[Food_Item_42] + 3.1 servings[Food_Item_43]
   + 10.53 servings[Food_Item_44] + 2.41 servings[Food_Item_45]
   + 0.3 servings[Food_Item_47] + 0.52 servings[Food_Item_48]
   + 99.48 servings[Food_Item_49] + 0.1 servings[Food_Item_50]
   + 5.3 servings[Food_Item_51] + 5.3 servings[Food_Item_52]
   + 0.35 servings[Food_Item_53] + 5.33 servings[Food_Item_54]
   + 0.19 servings[Food_Item_55] + 0.26 servings[Food_Item_56]
   + 6.4 servings[Food_Item_57] + 21.9 servings[Food_Item_58]
   + 0.96 servings[Food_Item_59] + 14.13 servings[Food_Item_60]
   + 10.4 servings[Food_Item_61] + 17.4 servings[Food_Item_62]
   + 14.1 servings[Food_Item_63] + 4.27 servings[Food_Item_64]
   + 21.9 servings[Food_Item_65] + 35.71 servings[Food_Item_66]
   + 0.73 servings[Food_Item_67] + 100 servings[Food_Item_68]
   + 26.54 servings[Food_Item_69] + 2.75 servings[Food_Item_70]
   + 5.82 servings[Food_Item_71] + 13.73 servings[Food_Item_72]
   + 0.74 servings[Food_Item_73] + 1.49 servings[Food_Item_74]
   + 11 servings[Food_Item_75] + 34.4 servings[Food_Item_76]
   + 0.2 servings[Food_Item_77] + 0.93 servings[Food_Item_78]
   + 4.6 servings[Food_Item_79] + 0.02 servings[Food_Item_80]
   + 0.35 servings[Food_Item_81] + 19.35 servings[Food_Item_82]
   + 0.2 servings[Food_Item_83] + 10.09 servings[Food_Item_84]
   + 28.2 servings[Food_Item_85] + 6.67 servings[Food_Item_86]
   + 6.67 servings[Food_Item_87] + 0.34 servings[Food_Item_88]
   + 0.29 servings[Food_Item_89] + 44.2 servings[Food_Item_90]
   + 37 servings[Food_Item_91] + 14.13 servings[Food_Item_92]
   + 49.6 servings[Food_Item_93] + 0.88 servings[Food_Item_94]
   + 0.74 servings[Food_Item_95] + 0.14 servings[Food_Item_96]
   + 0.69 servings[Food_Item_97] + 8.02 servings[Food_Item_98]
   + 10.44 servings[Food_Item_99] + 18.53 servings[Food_Item_100] >= 20
 R9: 0.05 servings[Food_Item_1] + 71.97 servings[Food_Item_2]
   + 0.18 servings[Food_Item_3] + 2.38 servings[Food_Item_4]
   + 2 servings[Food_Item_5] + 0.28 servings[Food_Item_6]
   + 0.74 servings[Food_Item_7] + 23.41 servings[Food_Item_8]
   + 24.26 servings[Food_Item_9] + 18 servings[Food_Item_10]
   + 0.39 servings[Food_Item_12] + 0.06 servings[Food_Item_13]
   + 7.2 servings[Food_Item_14] + 14.6 servings[Food_Item_15]
   + 4.53 servings[Food_Item_16] + 16.1 servings[Food_Item_17]
   + 0.37 servings[Food_Item_18] + 0.9 servings[Food_Item_19]
   + 9.21 servings[Food_Item_20] + 0.47 servings[Food_Item_21]
   + 1.68 servings[Food_Item_22] + 5.91 servings[Food_Item_23]
   + 33.3 servings[Food_Item_24] + 15.28 servings[Food_Item_25]
   + 2.95 servings[Food_Item_28] + 0.4 servings[Food_Item_29]
   + 68.37 servings[Food_Item_30] + 1.51 servings[Food_Item_31]
   + 0.19 servings[Food_Item_32] + 10.58 servings[Food_Item_33]
   + 0.76 servings[Food_Item_34] + 16.3 servings[Food_Item_35]
   + 0.15 servings[Food_Item_36] + 0.48 servings[Food_Item_37]
   + 50 servings[Food_Item_38] + 0.27 servings[Food_Item_39]
   + 0.55 servings[Food_Item_40] + 3 servings[Food_Item_41]
   + 16.1 servings[Food_Item_42] + 3.1 servings[Food_Item_43]
   + 10.53 servings[Food_Item_44] + 2.41 servings[Food_Item_45]
   + 0.3 servings[Food_Item_47] + 0.52 servings[Food_Item_48]
   + 99.48 servings[Food_Item_49] + 0.1 servings[Food_Item_50]
   + 5.3 servings[Food_Item_51] + 5.3 servings[Food_Item_52]
   + 0.35 servings[Food_Item_53] + 5.33 servings[Food_Item_54]
   + 0.19 servings[Food_Item_55] + 0.26 servings[Food_Item_56]
   + 6.4 servings[Food_Item_57] + 21.9 servings[Food_Item_58]
   + 0.96 servings[Food_Item_59] + 14.13 servings[Food_Item_60]
   + 10.4 servings[Food_Item_61] + 17.4 servings[Food_Item_62]
   + 14.1 servings[Food_Item_63] + 4.27 servings[Food_Item_64]
   + 21.9 servings[Food_Item_65] + 35.71 servings[Food_Item_66]
   + 0.73 servings[Food_Item_67] + 100 servings[Food_Item_68]
   + 26.54 servings[Food_Item_69] + 2.75 servings[Food_Item_70]
   + 5.82 servings[Food_Item_71] + 13.73 servings[Food_Item_72]
   + 0.74 servings[Food_Item_73] + 1.49 servings[Food_Item_74]
   + 11 servings[Food_Item_75] + 34.4 servings[Food_Item_76]
   + 0.2 servings[Food_Item_77] + 0.93 servings[Food_Item_78]
   + 4.6 servings[Food_Item_79] + 0.02 servings[Food_Item_80]
   + 0.35 servings[Food_Item_81] + 19.35 servings[Food_Item_82]
   + 0.2 servings[Food_Item_83] + 10.09 servings[Food_Item_84]
   + 28.2 servings[Food_Item_85] + 6.67 servings[Food_Item_86]
   + 6.67 servings[Food_Item_87] + 0.34 servings[Food_Item_88]
   + 0.29 servings[Food_Item_89] + 44.2 servings[Food_Item_90]
   + 37 servings[Food_Item_91] + 14.13 servings[Food_Item_92]
   + 49.6 servings[Food_Item_93] + 0.88 servings[Food_Item_94]
   + 0.74 servings[Food_Item_95] + 0.14 servings[Food_Item_96]
   + 0.69 servings[Food_Item_97] + 8.02 servings[Food_Item_98]
   + 10.44 servings[Food_Item_99] + 18.53 servings[Food_Item_100] <= 35
 R10: 0.9 servings[Food_Item_1] + 9.6 servings[Food_Item_2]
   + 3 servings[Food_Item_3] + 8 servings[Food_Item_4]
   + 1.3 servings[Food_Item_5] + 2 servings[Food_Item_6]
   + 3.7 servings[Food_Item_7] + 6.1 servings[Food_Item_10]
   + 3.1 servings[Food_Item_11] + 13 servings[Food_Item_12]
   + 0.3 servings[Food_Item_13] + 2.6 servings[Food_Item_17]
   + 2.8 servings[Food_Item_18] + 0.1 servings[Food_Item_20]
   + 3.9 servings[Food_Item_21] + 45.7 servings[Food_Item_23]
   + 7.7 servings[Food_Item_24] + 2.4 servings[Food_Item_29]
   + 3.7 servings[Food_Item_30] + 3.2 servings[Food_Item_31]
   + 1.6 servings[Food_Item_32] + 3.5 servings[Food_Item_33]
   + 2.6 servings[Food_Item_34] + 2.8 servings[Food_Item_35]
   + 6.6 servings[Food_Item_36] + 6.8 servings[Food_Item_39]
   + 6 servings[Food_Item_41] + 2.6 servings[Food_Item_42]
   + 2.9 servings[Food_Item_43] + 7.9 servings[Food_Item_44]
   + 0.1 servings[Food_Item_46] + 3.8 servings[Food_Item_47]
   + 2.8 servings[Food_Item_48] + 3.1 servings[Food_Item_50]
   + 1.8 servings[Food_Item_51] + 1.8 servings[Food_Item_52]
   + 2.3 servings[Food_Item_53] + 3.8 servings[Food_Item_54]
   + 0.9 servings[Food_Item_55] + 0.7 servings[Food_Item_56]
   + 15.8 servings[Food_Item_58] + 3.5 servings[Food_Item_60]
   + 1.4 servings[Food_Item_62] + 4 servings[Food_Item_63]
   + 4.7 servings[Food_Item_64] + servings[Food_Item_65]
   + 3.6 servings[Food_Item_66] + 9 servings[Food_Item_67]
   + 10.6 servings[Food_Item_70] + 3.9 servings[Food_Item_72]
   + 1.2 servings[Food_Item_75] + 3.4 servings[Food_Item_76]
   + 1.4 servings[Food_Item_77] + 9.8 servings[Food_Item_78]
   + 1.3 servings[Food_Item_84] + 6.6 servings[Food_Item_88]
   + 2.7 servings[Food_Item_89] + 10.3 servings[Food_Item_92]
   + 9.5 servings[Food_Item_93] + 2.5 servings[Food_Item_94]
   + 3 servings[Food_Item_96] + 3.3 servings[Food_Item_97] >= 38
 R11: 0.9 servings[Food_Item_1] + 9.6 servings[Food_Item_2]
   + 3 servings[Food_Item_3] + 8 servings[Food_Item_4]
   + 1.3 servings[Food_Item_5] + 2 servings[Food_Item_6]
   + 3.7 servings[Food_Item_7] + 6.1 servings[Food_Item_10]
   + 3.1 servings[Food_Item_11] + 13 servings[Food_Item_12]
   + 0.3 servings[Food_Item_13] + 2.6 servings[Food_Item_17]
   + 2.8 servings[Food_Item_18] + 0.1 servings[Food_Item_20]
   + 3.9 servings[Food_Item_21] + 45.7 servings[Food_Item_23]
   + 7.7 servings[Food_Item_24] + 2.4 servings[Food_Item_29]
   + 3.7 servings[Food_Item_30] + 3.2 servings[Food_Item_31]
   + 1.6 servings[Food_Item_32] + 3.5 servings[Food_Item_33]
   + 2.6 servings[Food_Item_34] + 2.8 servings[Food_Item_35]
   + 6.6 servings[Food_Item_36] + 6.8 servings[Food_Item_39]
   + 6 servings[Food_Item_41] + 2.6 servings[Food_Item_42]
   + 2.9 servings[Food_Item_43] + 7.9 servings[Food_Item_44]
   + 0.1 servings[Food_Item_46] + 3.8 servings[Food_Item_47]
   + 2.8 servings[Food_Item_48] + 3.1 servings[Food_Item_50]
   + 1.8 servings[Food_Item_51] + 1.8 servings[Food_Item_52]
   + 2.3 servings[Food_Item_53] + 3.8 servings[Food_Item_54]
   + 0.9 servings[Food_Item_55] + 0.7 servings[Food_Item_56]
   + 15.8 servings[Food_Item_58] + 3.5 servings[Food_Item_60]
   + 1.4 servings[Food_Item_62] + 4 servings[Food_Item_63]
   + 4.7 servings[Food_Item_64] + servings[Food_Item_65]
   + 3.6 servings[Food_Item_66] + 9 servings[Food_Item_67]
   + 10.6 servings[Food_Item_70] + 3.9 servings[Food_Item_72]
   + 1.2 servings[Food_Item_75] + 3.4 servings[Food_Item_76]
   + 1.4 servings[Food_Item_77] + 9.8 servings[Food_Item_78]
   + 1.3 servings[Food_Item_84] + 6.6 servings[Food_Item_88]
   + 2.7 servings[Food_Item_89] + 10.3 servings[Food_Item_92]
   + 9.5 servings[Food_Item_93] + 2.5 servings[Food_Item_94]
   + 3 servings[Food_Item_96] + 3.3 servings[Food_Item_97] <= 38
Bounds
Generals
 servings[Food_Item_1] servings[Food_Item_2] servings[Food_Item_4]
 servings[Food_Item_6] servings[Food_Item_7] servings[Food_Item_8]
 servings[Food_Item_11] servings[Food_Item_14] servings[Food_Item_17]
 servings[Food_Item_18] servings[Food_Item_21] servings[Food_Item_23]
 servings[Food_Item_25] servings[Food_Item_26] servings[Food_Item_30]
 servings[Food_Item_32] servings[Food_Item_34] servings[Food_Item_35]
 servings[Food_Item_37] servings[Food_Item_40] servings[Food_Item_41]
 servings[Food_Item_43] servings[Food_Item_45] servings[Food_Item_48]
 servings[Food_Item_50] servings[Food_Item_51] servings[Food_Item_53]
 servings[Food_Item_55] servings[Food_Item_56] servings[Food_Item_57]
 servings[Food_Item_61] servings[Food_Item_62] servings[Food_Item_64]
 servings[Food_Item_69] servings[Food_Item_70] servings[Food_Item_72]
 servings[Food_Item_75] servings[Food_Item_77] servings[Food_Item_79]
 servings[Food_Item_82] servings[Food_Item_83] servings[Food_Item_84]
 servings[Food_Item_87] servings[Food_Item_90] servings[Food_Item_92]
 servings[Food_Item_94] servings[Food_Item_96] servings[Food_Item_97]
 servings[Food_Item_98] servings[Food_Item_99]
End
